


















































































26 2 103 82 
33 9 110 112 
51 63 106 74 
89 48 43 
102 4 11 30 
6 37 101 
22 20 0 8 
24 86 58 90 
113 99 3 50 
111 55 70 98 
54 75 32 
47 84 87 
41 15 59 23 
35 68 80 66 
27 76 46 
96 29 21 91 
40 14 79 104 
42 60 62 83 
31 85 17 
97 57 105 65 
81 10 45 49 
107 93 114 72 
94 28 52 
36 56 108 61 
12 73 44 
39 78 64 109 
5 18 53 
71 77 92 
25 34 1 
7 13 16 
88 95 19 38 
100 67 69 
